(set-info :smt-lib-version 2.6)
(set-logic QF_SLIA)
(set-info :source |
Generated by: Dmitry Blotsky1, Federico Mora, Murphy Berzish, Yunhui Zheng, Ifaz Kabir, Vijay Ganesh, Zhengyang Lu
Generated on: 2018-01-24
Generator: StringFuzz
Application: Evaluate string solvers
Target solver: Z3str3, CVC4, Z3str2, Norn
Publications: Blotsky, D., Mora, F., Berzish, M., Zheng, Y., Kabir, I., & Ganesh, V. (2018). Stringfuzz: A fuzzer for string solvers. In CAV 2018.
Description: transformed by StringFuzz, a modular string and regex fuzzer, from an industrial benchmark
|)
(set-info :license "https://creativecommons.org/licenses/by/4.0/")
(set-info :category "random")
(set-info :status unknown)

(declare-const x String)
(assert (= x "]iUO_{k4v\\wp(~}I+]Wg!!NV)44]|eaab;' 'I'\r'H/9lzoz$N'\n''\r'3Vx*38rd=pc'-5)'\x0b'ZlJMccdd/)z,*'\x0b'_o1z"))
(assert (str.in_re x (str.to_re "a0`*K"".L'\t'd")))
(check-sat)

(exit)
